Ti  O 
 1.0000000000000000
     4.6029999999999998    0.0000000000000000    0.0000000000000000
     0.0000000000000000    4.6029999999999998    0.0000000000000000
     0.0000000000000000    0.0000000000000000    2.9769999999999999
   2   4
Cartesian
  0.0000000000000000  0.0000000000000000  0.0000000000000000
  2.3014999999999999  2.3014999999999999  1.4884999999999999
  1.4085179999999999  1.4085179999999999  0.0000000000000000
  3.1944819999999998  3.1944819999999998  0.0000000000000000
  0.8929820000000001  3.7100179999999998  1.4884999999999999
  3.7100179999999998  0.8929820000000001  1.4884999999999999
